% ----DATA VARIABLES----

t=14;%number of attributes
k=10;%max length of the support set
n=25;%number of positive instances
m=25;%number of negative instances
c=4;%number of atMostOne Constraints

% ----OMEGAS----

omegap= [| 0, 1, 1, 1, 1, 0, 1, 1, 0, 1, 1, 1, 1, 1|
 1, 1, 1, 1, 0, 0, 1, 1, 1, 1, 0, 1, 0, 0|
 1, 1, 1, 0, 1, 1, 1, 1, 0, 1, 1, 1, 1, 0|
 1, 1, 0, 0, 0, 0, 0, 1, 0, 1, 1, 0, 0, 0|
 1, 0, 1, 0, 1, 0, 0, 0, 0, 0, 1, 1, 1, 0|
 1, 0, 1, 1, 0, 0, 1, 1, 0, 0, 1, 0, 1, 1|
 0, 0, 0, 1, 0, 0, 0, 0, 1, 0, 0, 0, 1, 1|
 1, 1, 1, 0, 1, 0, 0, 0, 0, 1, 1, 1, 1, 0|
 0, 1, 1, 1, 0, 0, 0, 0, 1, 1, 1, 0, 0, 0|
 1, 0, 0, 0, 1, 1, 0, 0, 0, 0, 1, 1, 1, 0|
 1, 1, 1, 1, 0, 0, 0, 0, 1, 0, 1, 1, 1, 0|
 0, 0, 1, 1, 1, 0, 1, 0, 0, 1, 1, 0, 1, 0|
 1, 1, 1, 1, 1, 1, 0, 0, 0, 0, 1, 0, 1, 1|
 1, 0, 0, 0, 1, 1, 1, 0, 1, 0, 0, 1, 1, 0|
 1, 1, 1, 0, 0, 0, 0, 1, 1, 1, 1, 0, 0, 1|
 1, 0, 0, 1, 0, 1, 0, 0, 0, 1, 0, 0, 0, 1|
 0, 0, 0, 0, 0, 1, 1, 1, 1, 0, 1, 1, 0, 1|
 1, 0, 1, 1, 1, 1, 0, 0, 0, 0, 0, 1, 1, 0|
 0, 0, 0, 1, 1, 0, 0, 0, 0, 0, 0, 0, 0, 0|
 0, 0, 0, 1, 0, 1, 1, 0, 0, 1, 0, 1, 1, 0|
 0, 1, 1, 0, 0, 1, 0, 0, 0, 0, 1, 0, 0, 0|
 0, 1, 1, 1, 1, 1, 0, 1, 1, 1, 1, 0, 0, 0|
 0, 0, 1, 0, 1, 1, 1, 1, 0, 1, 0, 1, 1, 1|
 0, 1, 1, 1, 0, 0, 0, 0, 1, 0, 1, 0, 1, 0|
 1, 1, 0, 1, 1, 1, 0, 1, 1, 0, 1, 0, 1, 0|];

omegan= [| 0, 0, 0, 1, 0, 1, 0, 0, 0, 0, 1, 0, 0, 0|
 0, 1, 1, 0, 1, 1, 1, 0, 0, 1, 0, 0, 0, 0|
 1, 0, 1, 0, 1, 0, 1, 1, 0, 0, 0, 1, 0, 1|
 1, 1, 1, 0, 0, 1, 0, 0, 1, 1, 1, 1, 0, 0|
 1, 0, 1, 0, 0, 0, 0, 1, 0, 1, 0, 1, 1, 1|
 1, 0, 1, 0, 1, 0, 0, 0, 0, 1, 0, 1, 0, 1|
 0, 1, 0, 1, 0, 1, 0, 1, 0, 1, 0, 1, 0, 1|
 0, 0, 0, 1, 1, 0, 0, 1, 1, 1, 0, 0, 0, 0|
 1, 0, 1, 0, 0, 0, 1, 0, 1, 0, 1, 0, 0, 0|
 1, 1, 0, 0, 1, 1, 0, 1, 0, 0, 1, 1, 0, 0|
 0, 0, 0, 0, 0, 0, 0, 0, 0, 1, 1, 1, 0, 1|
 1, 0, 1, 0, 0, 0, 1, 1, 1, 0, 1, 0, 1, 1|
 1, 0, 1, 1, 1, 0, 0, 1, 0, 1, 1, 1, 0, 0|
 0, 1, 1, 1, 0, 1, 0, 0, 0, 1, 1, 1, 1, 0|
 0, 1, 0, 1, 0, 1, 1, 0, 1, 1, 0, 0, 1, 1|
 1, 0, 0, 1, 1, 0, 1, 1, 0, 0, 0, 0, 1, 0|
 0, 0, 0, 1, 0, 1, 1, 0, 1, 0, 1, 1, 1, 0|
 1, 1, 1, 1, 0, 1, 1, 1, 0, 0, 1, 1, 0, 0|
 1, 0, 1, 1, 1, 0, 0, 1, 1, 1, 1, 1, 0, 0|
 0, 0, 1, 0, 0, 1, 1, 0, 1, 0, 1, 1, 1, 1|
 1, 0, 1, 1, 1, 0, 1, 1, 0, 1, 1, 1, 1, 0|
 0, 0, 1, 0, 0, 1, 1, 1, 0, 0, 1, 1, 0, 1|
 0, 1, 1, 0, 1, 0, 0, 0, 1, 0, 0, 0, 1, 0|
 0, 1, 1, 0, 1, 0, 0, 0, 1, 0, 1, 1, 1, 0|
 0, 1, 0, 0, 0, 1, 0, 0, 0, 0, 1, 1, 0, 1|];

% ----CONSTRAINS----

atMostOne=[{3, 5, 11, 6, 11}, {12, 8, 7, 5}, {7}, {2, 9, 7, 6}];